15
Properties=species:S:1:pos:R:3 pbc="F F F"
O        0.00000000       0.00000000       0.11926200
H        0.00000000       0.76323900      -0.47704700
H        0.00000000      -0.76323900      -0.47704700
O        1.73205081       1.73205081       1.85131281
H        1.73205081       2.49528981       1.25500381
H        1.73205081       0.96881181       1.25500381
O       -1.73205081      -1.73205081       1.85131281
H       -1.73205081      -0.96881181       1.25500381
H       -1.73205081      -2.49528981       1.25500381
O       -1.73205081       1.73205081      -1.61278881
H       -1.73205081       2.49528981      -2.20909781
H       -1.73205081       0.96881181      -2.20909781
O        1.73205081      -1.73205081      -1.61278881
H        1.73205081      -0.96881181      -2.20909781
H        1.73205081      -2.49528981      -2.20909781
