15
Lattice="13.464101620000001 0.0 0.0 0.0 14.99057962 0.0 0.0 0.0 14.060410619999999" Properties=species:S:1:pos:R:3:magmoms:R:1:forces:R:3 energy=-53.92313960311329 free_energy=-53.92313960311329 dipole="1.4559257229262903e-12 -5.729317201639992e-13 -1.99210279233476" magmom=0.0 pbc="F F F"
O        6.73205081       7.49528981       7.37491001       0.00000000       0.00000000       0.00000000      -0.00140277
H        6.13715644       8.01426661       6.75441324       0.00000000      -0.00788596       0.01358741      -0.02857643
H        7.32694518       6.97631301       6.75441324       0.00000000       0.00788596      -0.01358741      -0.02857643
O        8.53812855       8.97948778       9.14960178       0.00000000      -0.02028630       0.02295259       0.01597696
H        8.54126613       9.91232157       8.81626539       0.00000000      -0.01942637      -0.00859827       0.00577496
H        7.87976981       8.52848704       8.53514825       0.00000000       0.00193566       0.00275007       0.01453163
O        4.92597307       6.01109184       9.14960178       0.00000000       0.02028630      -0.02295259       0.01597696
H        5.58433181       6.46209258       8.53514825       0.00000000      -0.00193566      -0.00275007       0.01453163
H        4.92283549       5.07825805       8.81626539       0.00000000       0.01942637       0.00859827       0.00577496
O        4.93558169       8.97341710       5.58574229       0.00000000       0.00350874       0.01311771      -0.01387409
H        5.12801291       9.86961784       5.20695060       0.00000000       0.01419462      -0.00771563       0.00944683
H        4.52234887       8.48937533       4.82454605       0.00000000       0.00803043       0.00615245       0.02501912
O        8.52851993       6.01716252       5.58574229       0.00000000      -0.00350874      -0.01311771      -0.01387409
H        8.94175275       6.50120429       4.82454605       0.00000000      -0.00803043      -0.00615245       0.02501912
H        8.33608871       5.12096178       5.20695060       0.00000000      -0.01419462       0.00771563       0.00944683
