15
Properties=species:S:1:pos:R:3:forces:R:3 energy=-42.20970799282645 pbc="F F F"
O       -0.65755944      -0.33226025      -0.23506145       0.00002247       0.00002264      -0.00002032
H       -0.21052302      -0.11865056      -1.11164216      -0.00002218       0.00003604      -0.00000598
H        0.06753979       0.33392712      -0.27895542       0.00001784       0.00002510       0.00006123
O        0.47248692       0.62032807       0.57344127       0.00001992       0.00003066       0.00000339
H        1.46652220       0.60901812       0.49294816      -0.00003140      -0.00001122      -0.00000078
H        0.91598601       0.83602900      -0.30718142      -0.00003148      -0.00005028      -0.00002012
O       -0.88871615      -0.51556205       0.71212209      -0.00000498       0.00000589       0.00000337
H        0.05094396      -0.28504042       0.48403770       0.00002279       0.00000247       0.00000056
H       -0.32293390      -1.16275888       0.19737914      -0.00002415      -0.00003841       0.00000018
O       -0.81633384       0.54751601      -0.66826652      -0.00000857      -0.00000940      -0.00001640
H       -0.82819522       0.43689005      -1.65806576       0.00001673      -0.00002509       0.00002770
H       -1.19078106      -0.28784826      -1.07149193      -0.00000732       0.00000392      -0.00000320
O        0.26014358      -0.64759544      -0.42392068       0.00004745       0.00000133      -0.00001386
H        0.75848625       0.05973178      -0.92558750       0.00001776      -0.00001235       0.00002099
H        0.92293392      -0.09372426       0.04608447      -0.00003487       0.00001870      -0.00003676
